c co [[[[[[[0], [1]], [[2], [3]]], [[[4], [5]], [6]]], [[[7], [8]], [[[[9], [10]], [11]], [[12], [13]]]]], [[[[[[14], [15]], [16]], [[[17], [18]], [[19], [20]]]], [[[[21], [22]], [23]], [[24], [[25], [26]]]]], [[[27], [28]], [[[29], [30]], [[31], [32]]]]]], [[[[[[33], [[[34], [35]], [[36], [37]]]], [[[[38], [39]], [40]], [[[41], [42]], [43]]]], [[[[[44], [[45], [46]]], [[[47], [48]], [49]]], [[[50], [51]], [52]]], [[[[[[53], [54]], [[55], [56]]], [[[[57], [58]], [[59], [60]]], [[61], [62]]]], [[63], [[64], [65]]]], [[[[[66], [67]], [[68], [69]]], [[70], [[71], [72]]]], [[[[73], [74]], [[75], [76]]], [77]]]]]], [[[[[78], [79]], [[[80], [81]], [82]]], [[[83], [84]], [[[85], [86]], [87]]]], [[[[[88], [89]], [[90], [91]]], [92]], [[[[93], [94]], [95]], [[96], [[97], [98]]]]]]], [[[[[99], [[100], [101]]], [[102], [[103], [104]]]], [[[105], [[106], [107]]], [[[108], [109]], [110]]]], [[[[[111], [112]], [113]], [[114], [115]]], [[[116], [117]], [[[118], [119]], [[120], [121]]]]]]]]
c vo [[[[[[26], [[27], [39]]], [[9], [[6], [10]]]], [[[22], [19]], [20]]], [[[[[7], [40]], [3]], [[[2], [1]], [23]]], [[[[[21], [37]], [8]], [[[[[[31], [32]], [[33], [34]]], [25]], [[38], [35]]], [[18], [[24], [44]]]]], [[[17], [14]], [[16], [15]]]]]], [[[[[4], [5]], [[12], [42]]], [[[36], [41]], [[13], [11]]]], [[[43], [29]], [[30], [28]]]]]
c 26 x26
c 27 x27
c 39 x39
c 9 x9
c 6 x6
c 10 x10
c 22 x22
c 19 x19
c 20 x20
c 7 x7
c 40 x40
c 3 x3
c 2 x2
c 1 x1
c 23 x23
c 21 x21
c 37 x37
c 8 x8
c 31 x31
c 32 x32
c 33 x33
c 34 x34
c 25 x25
c 38 x38
c 35 x35
c 18 x18
c 24 x24
c 44 x44
c 17 x17
c 14 x14
c 16 x16
c 15 x15
c 4 x4
c 5 x5
c 12 x12
c 42 x42
c 36 x36
c 41 x41
c 13 x13
c 11 x11
c 43 x43
c 29 x29
c 30 x30
c 28 x28
p cnf 44 122
9 32 0
26 9 0
-26 -27 -9 0
27 26 0
27 32 0
-39 -27 -32 0
27 39 0
9 38 0
9 36 0
22 38 0
-39 -22 -38 0
22 39 0
10 39 0
-39 -10 0
32 20 0
-20 -5 -32 0
5 20 0
12 32 0
-12 -5 -32 0
12 5 0
5 36 0
11 12 0
-11 -12 -13 0
11 13 0
13 36 0
-41 -36 -13 0
13 41 0
21 41 0
-41 -21 0
19 22 0
-20 -19 -21 -22 0
19 21 0
19 20 0
14 18 0
14 16 0
-18 -17 -14 -16 -15 0
14 17 0
14 15 0
32 15 0
-15 -32 -34 0
15 34 0
16 -32 0
32 34 -16 0
16 -34 0
18 35 0
-35 -18 -24 0
18 24 0
38 44 0
-24 -44 -38 0
24 44 0
17 33 0
-17 -33 -44 0
17 44 0
9 35 0
-35 -36 -9 -32 -38 0
37 32 0
-37 -32 0
21 37 0
21 35 0
-35 -37 -34 -21 0
21 34 0
38 34 0
-34 -38 0
-31 32 0
31 -34 -32 -33 0
-31 34 0
8 34 0
8 37 0
-37 -8 -34 -24 0
8 24 0
10 24 0
-10 -33 -24 0
33 10 0
6 8 0
6 9 0
-6 -10 -9 -7 -8 0
6 10 0
6 7 0
16 40 0
-40 -16 0
7 40 0
-40 -7 -33 0
7 33 0
35 33 0
-35 -33 0
3 35 0
-35 -40 -3 0
3 40 0
36 30 0
30 40 0
-40 -30 -33 -36 0
33 30 0
33 -31 0
28 30 0
-29 -28 -30 0
28 29 0
-31 29 0
43 -29 31 0
-43 29 0
-1 3 0
1 -2 -3 0
-1 2 0
2 34 0
-2 -33 -34 0
2 33 0
42 -34 0
33 -42 34 0
42 -33 0
25 32 0
-25 -33 -32 0
25 33 0
4 1 0
-4 -5 -1 0
4 5 0
42 5 0
-5 -36 -42 0
-36 -24 0
36 24 0
23 25 0
23 24 0
-23 -24 -1 -25 0
23 1 0
